! B3LYP D3BJ def2-TZVP RIJCOSX def2/J TightSCF TightOpt DefGrid3 Opt Freq

%pal nprocs 24 end
%maxcore 5000

* xyz 0 1
Cu  -1.232878   0.000000   0.000000
Cu   1.232876   0.000000   0.000000
I    0.000000   2.252402   0.000000
I    0.000000  -2.252401   0.000000
C   -3.230000   0.000000   1.390000
C   -3.230000   1.204000   0.695000
C   -3.230000   1.204000  -0.695000
C   -3.230000   0.000000  -1.390000
C   -3.230000  -1.204000  -0.695000
C   -3.230000  -1.204000   0.695000
O   -3.230000   0.000000   2.750000
C   -3.230000   0.000000   4.180000
H   -2.202000   0.000000   4.543000
H   -3.744000   0.890000   4.543000
H   -3.744000  -0.890000   4.543000
O   -3.230000   2.382000   1.375000
C   -3.230000   3.620000   2.090000
H   -3.230000   4.450000   1.380000
H   -2.340000   3.620000   2.720000
H   -4.120000   3.620000   2.720000
H   -3.230000   2.141000  -1.235000
H   -3.230000   0.000000  -2.470000
H   -3.230000  -2.141000  -1.235000
H   -3.230000  -2.141000   1.235000
*
