! B3LYP D3BJ def2-TZVP RIJCOSX def2/J TightSCF SP CPCM(WATER) DefGrid3

%pal nprocs 4 end
%maxcore 16000
%scf
  SCFMode Direct
end

%cpcm
  smd true
  SMDsolvent "Water"
end

* xyz 0 1
  C      0.695683    1.423821   -0.090301
  C     -0.694982    1.423892    0.090856
  C     -1.372736    0.215206    0.196533
  C     -0.686805   -0.990065    0.104245
  C      0.686991   -0.990138   -0.104837
  C      1.373174    0.215029   -0.196557
  H      2.444541    0.242549   -0.348022
  H      1.227261   -1.924259   -0.186663
  H     -1.227244   -1.924124    0.185646
  H     -2.444097    0.242871    0.348024
  O      1.404278    2.594753   -0.208253
  C      1.488930    3.373472    0.988950
  H      2.000175    2.808005    1.773491
  H      2.073844    4.256133    0.737799
  H      0.499076    3.670246    1.339491
  O     -1.403194    2.595067    0.209114
  C     -1.489419    3.372576   -0.988776
  H     -2.004454    2.807459   -1.771125
  H     -0.499766    3.666307   -1.342435
  H     -2.071255    4.257201   -0.737178
*
