! B3LYP D3BJ def2-TZVP RIJCOSX def2/J TightSCF SP CPCM(WATER) DefGrid3

%cpcm
  smd true
  SMDsolvent "Water"
end

%pal nprocs 8 end
%maxcore 5000

* xyzfile 0 1 cu2i2_veratrole_pi_opt_freq_v2.xyz
